(set-logic ALL)

; Normalized Portuguese Bank Dataset (numeric features only)
; Min-Max scaled to [-1, 1]
; Numeric column: duration (index 11)

(define-fun m () Int 100)
(define-fun n () Int 1)

(declare-const D (Array Int (Array Int Real)))

(define-fun row1 ((x0 Real)) (Array Int Real)
  (store ((as const (Array Int Real)) 0.0) 0 x0)
)

(assert (= (select D 0) (row1 -0.718980)))
(assert (= (select D 1) (row1 -0.843626)))
(assert (= (select D 2) (row1 -0.928612)))
(assert (= (select D 3) (row1 -0.910482)))
(assert (= (select D 4) (row1 -0.790368)))
(assert (= (select D 5) (row1 -0.857224)))
(assert (= (select D 6) (row1 -0.768839)))
(assert (= (select D 7) (row1 -0.584136)))
(assert (= (select D 8) (row1 -0.958074)))
(assert (= (select D 9) (row1 -0.952408)))
(assert (= (select D 10) (row1 -0.763173)))
(assert (= (select D 11) (row1 -0.859490)))
(assert (= (select D 12) (row1 -0.428895)))
(assert (= (select D 13) (row1 -0.934278)))
(assert (= (select D 14) (row1 -0.817564)))
(assert (= (select D 15) (row1 -0.614731)))
(assert (= (select D 16) (row1 -0.903683)))
(assert (= (select D 17) (row1 -0.971671)))
(assert (= (select D 18) (row1 -0.766572)))
(assert (= (select D 19) (row1 -0.953541)))
(assert (= (select D 20) (row1 -0.717847)))
(assert (= (select D 21) (row1 -0.828895)))
(assert (= (select D 22) (row1 -0.833428)))
(assert (= (select D 23) (row1 -0.627195)))
(assert (= (select D 24) (row1 -0.809632)))
(assert (= (select D 25) (row1 -0.819830)))
(assert (= (select D 26) (row1 -0.679320)))
(assert (= (select D 27) (row1 -0.870822)))
(assert (= (select D 28) (row1 -0.725779)))
(assert (= (select D 29) (row1 -0.620397)))
(assert (= (select D 30) (row1 -0.759773)))
(assert (= (select D 31) (row1 -0.754108)))
(assert (= (select D 32) (row1 -0.779037)))
(assert (= (select D 33) (row1 -0.758640)))
(assert (= (select D 34) (row1 -0.633994)))
(assert (= (select D 35) (row1 -0.740510)))
(assert (= (select D 36) (row1 -0.601133)))
(assert (= (select D 37) (row1 0.873088)))
(assert (= (select D 38) (row1 -0.360907)))
(assert (= (select D 39) (row1 -0.859490)))
(assert (= (select D 40) (row1 -0.833428)))
(assert (= (select D 41) (row1 -0.810765)))
(assert (= (select D 42) (row1 -0.989802)))
(assert (= (select D 43) (row1 0.675921)))
(assert (= (select D 44) (row1 -0.316714)))
(assert (= (select D 45) (row1 -0.740510)))
(assert (= (select D 46) (row1 -0.612465)))
(assert (= (select D 47) (row1 -0.759773)))
(assert (= (select D 48) (row1 -0.833428)))
(assert (= (select D 49) (row1 -0.603399)))
(assert (= (select D 50) (row1 -0.713314)))
(assert (= (select D 51) (row1 -0.728045)))
(assert (= (select D 52) (row1 -0.811898)))
(assert (= (select D 53) (row1 -0.122946)))
(assert (= (select D 54) (row1 -0.850425)))
(assert (= (select D 55) (row1 -0.817564)))
(assert (= (select D 56) (row1 -0.896884)))
(assert (= (select D 57) (row1 -1.000000)))
(assert (= (select D 58) (row1 -0.805099)))
(assert (= (select D 59) (row1 1.000000)))
(assert (= (select D 60) (row1 -0.858357)))
(assert (= (select D 61) (row1 -0.094618)))
(assert (= (select D 62) (row1 -0.828895)))
(assert (= (select D 63) (row1 -0.571671)))
(assert (= (select D 64) (row1 -0.610198)))
(assert (= (select D 65) (row1 -0.911615)))
(assert (= (select D 66) (row1 -0.416431)))
(assert (= (select D 67) (row1 -0.705382)))
(assert (= (select D 68) (row1 -0.835694)))
(assert (= (select D 69) (row1 -0.814164)))
(assert (= (select D 70) (row1 -0.722380)))
(assert (= (select D 71) (row1 -0.819830)))
(assert (= (select D 72) (row1 -0.840227)))
(assert (= (select D 73) (row1 -0.684986)))
(assert (= (select D 74) (row1 -0.809632)))
(assert (= (select D 75) (row1 -0.815297)))
(assert (= (select D 76) (row1 -0.775637)))
(assert (= (select D 77) (row1 -0.619263)))
(assert (= (select D 78) (row1 -0.706516)))
(assert (= (select D 79) (row1 -0.779037)))
(assert (= (select D 80) (row1 -0.796034)))
(assert (= (select D 81) (row1 -0.774504)))
(assert (= (select D 82) (row1 -0.992068)))
(assert (= (select D 83) (row1 0.166006)))
(assert (= (select D 84) (row1 -0.735977)))
(assert (= (select D 85) (row1 -0.415297)))
(assert (= (select D 86) (row1 0.647592)))
(assert (= (select D 87) (row1 0.559207)))
(assert (= (select D 88) (row1 -0.801700)))
(assert (= (select D 89) (row1 -0.810765)))
(assert (= (select D 90) (row1 -0.960340)))
(assert (= (select D 91) (row1 -0.773371)))
(assert (= (select D 92) (row1 -0.354108)))
(assert (= (select D 93) (row1 -0.764306)))
(assert (= (select D 94) (row1 -0.818697)))
(assert (= (select D 95) (row1 -0.532011)))
(assert (= (select D 96) (row1 -0.689518)))
(assert (= (select D 97) (row1 -0.900283)))
(assert (= (select D 98) (row1 -0.784703)))
(assert (= (select D 99) (row1 -0.791501)))

; =====================
; Distance threshold
; d = 0.2  → d² = 0.04
; =====================
(define-fun d2 () Real 4.0)

; =====================
; Squared Euclidean distance
; =====================
(define-fun-rec squared-diff-sum
  ((p1 (Array Int Real)) (p2 (Array Int Real)) (k Int)) Real
  (ite (< k 0)
       0.0
       (+ (* (- (select p1 k) (select p2 k))
             (- (select p1 k) (select p2 k)))
          (squared-diff-sum p1 p2 (- k 1)))
  )
)
; =====================





; =====================
; Auxiliary lemmas: well-distributedness (1D)
; =====================

(define-fun sqdist ((p Real) (i Int)) Real
  (* (- p (select (select D i) 0))
     (- p (select (select D i) 0)))
)

(define-fun close_p0 () Bool
  (or
    (<= (sqdist -1.0 0) d2)
    (<= (sqdist -1.0 1) d2)
    (<= (sqdist -1.0 2) d2)
    (<= (sqdist -1.0 3) d2)
    (<= (sqdist -1.0 4) d2)
    (<= (sqdist -1.0 5) d2)
    (<= (sqdist -1.0 6) d2)
    (<= (sqdist -1.0 7) d2)
    (<= (sqdist -1.0 8) d2)
    (<= (sqdist -1.0 9) d2)
    (<= (sqdist -1.0 10) d2)
    (<= (sqdist -1.0 11) d2)
    (<= (sqdist -1.0 12) d2)
    (<= (sqdist -1.0 13) d2)
    (<= (sqdist -1.0 14) d2)
    (<= (sqdist -1.0 15) d2)
    (<= (sqdist -1.0 16) d2)
    (<= (sqdist -1.0 17) d2)
    (<= (sqdist -1.0 18) d2)
    (<= (sqdist -1.0 19) d2)
    (<= (sqdist -1.0 20) d2)
    (<= (sqdist -1.0 21) d2)
    (<= (sqdist -1.0 22) d2)
    (<= (sqdist -1.0 23) d2)
    (<= (sqdist -1.0 24) d2)
    (<= (sqdist -1.0 25) d2)
    (<= (sqdist -1.0 26) d2)
    (<= (sqdist -1.0 27) d2)
    (<= (sqdist -1.0 28) d2)
    (<= (sqdist -1.0 29) d2)
    (<= (sqdist -1.0 30) d2)
    (<= (sqdist -1.0 31) d2)
    (<= (sqdist -1.0 32) d2)
    (<= (sqdist -1.0 33) d2)
    (<= (sqdist -1.0 34) d2)
    (<= (sqdist -1.0 35) d2)
    (<= (sqdist -1.0 36) d2)
    (<= (sqdist -1.0 37) d2)
    (<= (sqdist -1.0 38) d2)
    (<= (sqdist -1.0 39) d2)
    (<= (sqdist -1.0 40) d2)
    (<= (sqdist -1.0 41) d2)
    (<= (sqdist -1.0 42) d2)
    (<= (sqdist -1.0 43) d2)
    (<= (sqdist -1.0 44) d2)
    (<= (sqdist -1.0 45) d2)
    (<= (sqdist -1.0 46) d2)
    (<= (sqdist -1.0 47) d2)
    (<= (sqdist -1.0 48) d2)
    (<= (sqdist -1.0 49) d2)
    (<= (sqdist -1.0 50) d2)
    (<= (sqdist -1.0 51) d2)
    (<= (sqdist -1.0 52) d2)
    (<= (sqdist -1.0 53) d2)
    (<= (sqdist -1.0 54) d2)
    (<= (sqdist -1.0 55) d2)
    (<= (sqdist -1.0 56) d2)
    (<= (sqdist -1.0 57) d2)
    (<= (sqdist -1.0 58) d2)
    (<= (sqdist -1.0 59) d2)
    (<= (sqdist -1.0 60) d2)
    (<= (sqdist -1.0 61) d2)
    (<= (sqdist -1.0 62) d2)
    (<= (sqdist -1.0 63) d2)
    (<= (sqdist -1.0 64) d2)
    (<= (sqdist -1.0 65) d2)
    (<= (sqdist -1.0 66) d2)
    (<= (sqdist -1.0 67) d2)
    (<= (sqdist -1.0 68) d2)
    (<= (sqdist -1.0 69) d2)
    (<= (sqdist -1.0 70) d2)
    (<= (sqdist -1.0 71) d2)
    (<= (sqdist -1.0 72) d2)
    (<= (sqdist -1.0 73) d2)
    (<= (sqdist -1.0 74) d2)
    (<= (sqdist -1.0 75) d2)
    (<= (sqdist -1.0 76) d2)
    (<= (sqdist -1.0 77) d2)
    (<= (sqdist -1.0 78) d2)
    (<= (sqdist -1.0 79) d2)
    (<= (sqdist -1.0 80) d2)
    (<= (sqdist -1.0 81) d2)
    (<= (sqdist -1.0 82) d2)
    (<= (sqdist -1.0 83) d2)
    (<= (sqdist -1.0 84) d2)
    (<= (sqdist -1.0 85) d2)
    (<= (sqdist -1.0 86) d2)
    (<= (sqdist -1.0 87) d2)
    (<= (sqdist -1.0 88) d2)
    (<= (sqdist -1.0 89) d2)
    (<= (sqdist -1.0 90) d2)
    (<= (sqdist -1.0 91) d2)
    (<= (sqdist -1.0 92) d2)
    (<= (sqdist -1.0 93) d2)
    (<= (sqdist -1.0 94) d2)
    (<= (sqdist -1.0 95) d2)
    (<= (sqdist -1.0 96) d2)
    (<= (sqdist -1.0 97) d2)
    (<= (sqdist -1.0 98) d2)
    (<= (sqdist -1.0 99) d2)
  )
)

(define-fun close_p1 () Bool
  (or
    (<= (sqdist -0.5 0) d2)
    (<= (sqdist -0.5 1) d2)
    (<= (sqdist -0.5 2) d2)
    (<= (sqdist -0.5 3) d2)
    (<= (sqdist -0.5 4) d2)
    (<= (sqdist -0.5 5) d2)
    (<= (sqdist -0.5 6) d2)
    (<= (sqdist -0.5 7) d2)
    (<= (sqdist -0.5 8) d2)
    (<= (sqdist -0.5 9) d2)
    (<= (sqdist -0.5 10) d2)
    (<= (sqdist -0.5 11) d2)
    (<= (sqdist -0.5 12) d2)
    (<= (sqdist -0.5 13) d2)
    (<= (sqdist -0.5 14) d2)
    (<= (sqdist -0.5 15) d2)
    (<= (sqdist -0.5 16) d2)
    (<= (sqdist -0.5 17) d2)
    (<= (sqdist -0.5 18) d2)
    (<= (sqdist -0.5 19) d2)
    (<= (sqdist -0.5 20) d2)
    (<= (sqdist -0.5 21) d2)
    (<= (sqdist -0.5 22) d2)
    (<= (sqdist -0.5 23) d2)
    (<= (sqdist -0.5 24) d2)
    (<= (sqdist -0.5 25) d2)
    (<= (sqdist -0.5 26) d2)
    (<= (sqdist -0.5 27) d2)
    (<= (sqdist -0.5 28) d2)
    (<= (sqdist -0.5 29) d2)
    (<= (sqdist -0.5 30) d2)
    (<= (sqdist -0.5 31) d2)
    (<= (sqdist -0.5 32) d2)
    (<= (sqdist -0.5 33) d2)
    (<= (sqdist -0.5 34) d2)
    (<= (sqdist -0.5 35) d2)
    (<= (sqdist -0.5 36) d2)
    (<= (sqdist -0.5 37) d2)
    (<= (sqdist -0.5 38) d2)
    (<= (sqdist -0.5 39) d2)
    (<= (sqdist -0.5 40) d2)
    (<= (sqdist -0.5 41) d2)
    (<= (sqdist -0.5 42) d2)
    (<= (sqdist -0.5 43) d2)
    (<= (sqdist -0.5 44) d2)
    (<= (sqdist -0.5 45) d2)
    (<= (sqdist -0.5 46) d2)
    (<= (sqdist -0.5 47) d2)
    (<= (sqdist -0.5 48) d2)
    (<= (sqdist -0.5 49) d2)
    (<= (sqdist -0.5 50) d2)
    (<= (sqdist -0.5 51) d2)
    (<= (sqdist -0.5 52) d2)
    (<= (sqdist -0.5 53) d2)
    (<= (sqdist -0.5 54) d2)
    (<= (sqdist -0.5 55) d2)
    (<= (sqdist -0.5 56) d2)
    (<= (sqdist -0.5 57) d2)
    (<= (sqdist -0.5 58) d2)
    (<= (sqdist -0.5 59) d2)
    (<= (sqdist -0.5 60) d2)
    (<= (sqdist -0.5 61) d2)
    (<= (sqdist -0.5 62) d2)
    (<= (sqdist -0.5 63) d2)
    (<= (sqdist -0.5 64) d2)
    (<= (sqdist -0.5 65) d2)
    (<= (sqdist -0.5 66) d2)
    (<= (sqdist -0.5 67) d2)
    (<= (sqdist -0.5 68) d2)
    (<= (sqdist -0.5 69) d2)
    (<= (sqdist -0.5 70) d2)
    (<= (sqdist -0.5 71) d2)
    (<= (sqdist -0.5 72) d2)
    (<= (sqdist -0.5 73) d2)
    (<= (sqdist -0.5 74) d2)
    (<= (sqdist -0.5 75) d2)
    (<= (sqdist -0.5 76) d2)
    (<= (sqdist -0.5 77) d2)
    (<= (sqdist -0.5 78) d2)
    (<= (sqdist -0.5 79) d2)
    (<= (sqdist -0.5 80) d2)
    (<= (sqdist -0.5 81) d2)
    (<= (sqdist -0.5 82) d2)
    (<= (sqdist -0.5 83) d2)
    (<= (sqdist -0.5 84) d2)
    (<= (sqdist -0.5 85) d2)
    (<= (sqdist -0.5 86) d2)
    (<= (sqdist -0.5 87) d2)
    (<= (sqdist -0.5 88) d2)
    (<= (sqdist -0.5 89) d2)
    (<= (sqdist -0.5 90) d2)
    (<= (sqdist -0.5 91) d2)
    (<= (sqdist -0.5 92) d2)
    (<= (sqdist -0.5 93) d2)
    (<= (sqdist -0.5 94) d2)
    (<= (sqdist -0.5 95) d2)
    (<= (sqdist -0.5 96) d2)
    (<= (sqdist -0.5 97) d2)
    (<= (sqdist -0.5 98) d2)
    (<= (sqdist -0.5 99) d2)
  )
)

(define-fun close_p2 () Bool
  (or
    (<= (sqdist 0.0 0) d2)
    (<= (sqdist 0.0 1) d2)
    (<= (sqdist 0.0 2) d2)
    (<= (sqdist 0.0 3) d2)
    (<= (sqdist 0.0 4) d2)
    (<= (sqdist 0.0 5) d2)
    (<= (sqdist 0.0 6) d2)
    (<= (sqdist 0.0 7) d2)
    (<= (sqdist 0.0 8) d2)
    (<= (sqdist 0.0 9) d2)
    (<= (sqdist 0.0 10) d2)
    (<= (sqdist 0.0 11) d2)
    (<= (sqdist 0.0 12) d2)
    (<= (sqdist 0.0 13) d2)
    (<= (sqdist 0.0 14) d2)
    (<= (sqdist 0.0 15) d2)
    (<= (sqdist 0.0 16) d2)
    (<= (sqdist 0.0 17) d2)
    (<= (sqdist 0.0 18) d2)
    (<= (sqdist 0.0 19) d2)
    (<= (sqdist 0.0 20) d2)
    (<= (sqdist 0.0 21) d2)
    (<= (sqdist 0.0 22) d2)
    (<= (sqdist 0.0 23) d2)
    (<= (sqdist 0.0 24) d2)
    (<= (sqdist 0.0 25) d2)
    (<= (sqdist 0.0 26) d2)
    (<= (sqdist 0.0 27) d2)
    (<= (sqdist 0.0 28) d2)
    (<= (sqdist 0.0 29) d2)
    (<= (sqdist 0.0 30) d2)
    (<= (sqdist 0.0 31) d2)
    (<= (sqdist 0.0 32) d2)
    (<= (sqdist 0.0 33) d2)
    (<= (sqdist 0.0 34) d2)
    (<= (sqdist 0.0 35) d2)
    (<= (sqdist 0.0 36) d2)
    (<= (sqdist 0.0 37) d2)
    (<= (sqdist 0.0 38) d2)
    (<= (sqdist 0.0 39) d2)
    (<= (sqdist 0.0 40) d2)
    (<= (sqdist 0.0 41) d2)
    (<= (sqdist 0.0 42) d2)
    (<= (sqdist 0.0 43) d2)
    (<= (sqdist 0.0 44) d2)
    (<= (sqdist 0.0 45) d2)
    (<= (sqdist 0.0 46) d2)
    (<= (sqdist 0.0 47) d2)
    (<= (sqdist 0.0 48) d2)
    (<= (sqdist 0.0 49) d2)
    (<= (sqdist 0.0 50) d2)
    (<= (sqdist 0.0 51) d2)
    (<= (sqdist 0.0 52) d2)
    (<= (sqdist 0.0 53) d2)
    (<= (sqdist 0.0 54) d2)
    (<= (sqdist 0.0 55) d2)
    (<= (sqdist 0.0 56) d2)
    (<= (sqdist 0.0 57) d2)
    (<= (sqdist 0.0 58) d2)
    (<= (sqdist 0.0 59) d2)
    (<= (sqdist 0.0 60) d2)
    (<= (sqdist 0.0 61) d2)
    (<= (sqdist 0.0 62) d2)
    (<= (sqdist 0.0 63) d2)
    (<= (sqdist 0.0 64) d2)
    (<= (sqdist 0.0 65) d2)
    (<= (sqdist 0.0 66) d2)
    (<= (sqdist 0.0 67) d2)
    (<= (sqdist 0.0 68) d2)
    (<= (sqdist 0.0 69) d2)
    (<= (sqdist 0.0 70) d2)
    (<= (sqdist 0.0 71) d2)
    (<= (sqdist 0.0 72) d2)
    (<= (sqdist 0.0 73) d2)
    (<= (sqdist 0.0 74) d2)
    (<= (sqdist 0.0 75) d2)
    (<= (sqdist 0.0 76) d2)
    (<= (sqdist 0.0 77) d2)
    (<= (sqdist 0.0 78) d2)
    (<= (sqdist 0.0 79) d2)
    (<= (sqdist 0.0 80) d2)
    (<= (sqdist 0.0 81) d2)
    (<= (sqdist 0.0 82) d2)
    (<= (sqdist 0.0 83) d2)
    (<= (sqdist 0.0 84) d2)
    (<= (sqdist 0.0 85) d2)
    (<= (sqdist 0.0 86) d2)
    (<= (sqdist 0.0 87) d2)
    (<= (sqdist 0.0 88) d2)
    (<= (sqdist 0.0 89) d2)
    (<= (sqdist 0.0 90) d2)
    (<= (sqdist 0.0 91) d2)
    (<= (sqdist 0.0 92) d2)
    (<= (sqdist 0.0 93) d2)
    (<= (sqdist 0.0 94) d2)
    (<= (sqdist 0.0 95) d2)
    (<= (sqdist 0.0 96) d2)
    (<= (sqdist 0.0 97) d2)
    (<= (sqdist 0.0 98) d2)
    (<= (sqdist 0.0 99) d2)
  )
)

(define-fun close_p3 () Bool
  (or
    (<= (sqdist 0.5 0) d2)
    (<= (sqdist 0.5 1) d2)
    (<= (sqdist 0.5 2) d2)
    (<= (sqdist 0.5 3) d2)
    (<= (sqdist 0.5 4) d2)
    (<= (sqdist 0.5 5) d2)
    (<= (sqdist 0.5 6) d2)
    (<= (sqdist 0.5 7) d2)
    (<= (sqdist 0.5 8) d2)
    (<= (sqdist 0.5 9) d2)
    (<= (sqdist 0.5 10) d2)
    (<= (sqdist 0.5 11) d2)
    (<= (sqdist 0.5 12) d2)
    (<= (sqdist 0.5 13) d2)
    (<= (sqdist 0.5 14) d2)
    (<= (sqdist 0.5 15) d2)
    (<= (sqdist 0.5 16) d2)
    (<= (sqdist 0.5 17) d2)
    (<= (sqdist 0.5 18) d2)
    (<= (sqdist 0.5 19) d2)
    (<= (sqdist 0.5 20) d2)
    (<= (sqdist 0.5 21) d2)
    (<= (sqdist 0.5 22) d2)
    (<= (sqdist 0.5 23) d2)
    (<= (sqdist 0.5 24) d2)
    (<= (sqdist 0.5 25) d2)
    (<= (sqdist 0.5 26) d2)
    (<= (sqdist 0.5 27) d2)
    (<= (sqdist 0.5 28) d2)
    (<= (sqdist 0.5 29) d2)
    (<= (sqdist 0.5 30) d2)
    (<= (sqdist 0.5 31) d2)
    (<= (sqdist 0.5 32) d2)
    (<= (sqdist 0.5 33) d2)
    (<= (sqdist 0.5 34) d2)
    (<= (sqdist 0.5 35) d2)
    (<= (sqdist 0.5 36) d2)
    (<= (sqdist 0.5 37) d2)
    (<= (sqdist 0.5 38) d2)
    (<= (sqdist 0.5 39) d2)
    (<= (sqdist 0.5 40) d2)
    (<= (sqdist 0.5 41) d2)
    (<= (sqdist 0.5 42) d2)
    (<= (sqdist 0.5 43) d2)
    (<= (sqdist 0.5 44) d2)
    (<= (sqdist 0.5 45) d2)
    (<= (sqdist 0.5 46) d2)
    (<= (sqdist 0.5 47) d2)
    (<= (sqdist 0.5 48) d2)
    (<= (sqdist 0.5 49) d2)
    (<= (sqdist 0.5 50) d2)
    (<= (sqdist 0.5 51) d2)
    (<= (sqdist 0.5 52) d2)
    (<= (sqdist 0.5 53) d2)
    (<= (sqdist 0.5 54) d2)
    (<= (sqdist 0.5 55) d2)
    (<= (sqdist 0.5 56) d2)
    (<= (sqdist 0.5 57) d2)
    (<= (sqdist 0.5 58) d2)
    (<= (sqdist 0.5 59) d2)
    (<= (sqdist 0.5 60) d2)
    (<= (sqdist 0.5 61) d2)
    (<= (sqdist 0.5 62) d2)
    (<= (sqdist 0.5 63) d2)
    (<= (sqdist 0.5 64) d2)
    (<= (sqdist 0.5 65) d2)
    (<= (sqdist 0.5 66) d2)
    (<= (sqdist 0.5 67) d2)
    (<= (sqdist 0.5 68) d2)
    (<= (sqdist 0.5 69) d2)
    (<= (sqdist 0.5 70) d2)
    (<= (sqdist 0.5 71) d2)
    (<= (sqdist 0.5 72) d2)
    (<= (sqdist 0.5 73) d2)
    (<= (sqdist 0.5 74) d2)
    (<= (sqdist 0.5 75) d2)
    (<= (sqdist 0.5 76) d2)
    (<= (sqdist 0.5 77) d2)
    (<= (sqdist 0.5 78) d2)
    (<= (sqdist 0.5 79) d2)
    (<= (sqdist 0.5 80) d2)
    (<= (sqdist 0.5 81) d2)
    (<= (sqdist 0.5 82) d2)
    (<= (sqdist 0.5 83) d2)
    (<= (sqdist 0.5 84) d2)
    (<= (sqdist 0.5 85) d2)
    (<= (sqdist 0.5 86) d2)
    (<= (sqdist 0.5 87) d2)
    (<= (sqdist 0.5 88) d2)
    (<= (sqdist 0.5 89) d2)
    (<= (sqdist 0.5 90) d2)
    (<= (sqdist 0.5 91) d2)
    (<= (sqdist 0.5 92) d2)
    (<= (sqdist 0.5 93) d2)
    (<= (sqdist 0.5 94) d2)
    (<= (sqdist 0.5 95) d2)
    (<= (sqdist 0.5 96) d2)
    (<= (sqdist 0.5 97) d2)
    (<= (sqdist 0.5 98) d2)
    (<= (sqdist 0.5 99) d2)
  )
)

(define-fun close_p4 () Bool
  (or
    (<= (sqdist 1.0 0) d2)
    (<= (sqdist 1.0 1) d2)
    (<= (sqdist 1.0 2) d2)
    (<= (sqdist 1.0 3) d2)
    (<= (sqdist 1.0 4) d2)
    (<= (sqdist 1.0 5) d2)
    (<= (sqdist 1.0 6) d2)
    (<= (sqdist 1.0 7) d2)
    (<= (sqdist 1.0 8) d2)
    (<= (sqdist 1.0 9) d2)
    (<= (sqdist 1.0 10) d2)
    (<= (sqdist 1.0 11) d2)
    (<= (sqdist 1.0 12) d2)
    (<= (sqdist 1.0 13) d2)
    (<= (sqdist 1.0 14) d2)
    (<= (sqdist 1.0 15) d2)
    (<= (sqdist 1.0 16) d2)
    (<= (sqdist 1.0 17) d2)
    (<= (sqdist 1.0 18) d2)
    (<= (sqdist 1.0 19) d2)
    (<= (sqdist 1.0 20) d2)
    (<= (sqdist 1.0 21) d2)
    (<= (sqdist 1.0 22) d2)
    (<= (sqdist 1.0 23) d2)
    (<= (sqdist 1.0 24) d2)
    (<= (sqdist 1.0 25) d2)
    (<= (sqdist 1.0 26) d2)
    (<= (sqdist 1.0 27) d2)
    (<= (sqdist 1.0 28) d2)
    (<= (sqdist 1.0 29) d2)
    (<= (sqdist 1.0 30) d2)
    (<= (sqdist 1.0 31) d2)
    (<= (sqdist 1.0 32) d2)
    (<= (sqdist 1.0 33) d2)
    (<= (sqdist 1.0 34) d2)
    (<= (sqdist 1.0 35) d2)
    (<= (sqdist 1.0 36) d2)
    (<= (sqdist 1.0 37) d2)
    (<= (sqdist 1.0 38) d2)
    (<= (sqdist 1.0 39) d2)
    (<= (sqdist 1.0 40) d2)
    (<= (sqdist 1.0 41) d2)
    (<= (sqdist 1.0 42) d2)
    (<= (sqdist 1.0 43) d2)
    (<= (sqdist 1.0 44) d2)
    (<= (sqdist 1.0 45) d2)
    (<= (sqdist 1.0 46) d2)
    (<= (sqdist 1.0 47) d2)
    (<= (sqdist 1.0 48) d2)
    (<= (sqdist 1.0 49) d2)
    (<= (sqdist 1.0 50) d2)
    (<= (sqdist 1.0 51) d2)
    (<= (sqdist 1.0 52) d2)
    (<= (sqdist 1.0 53) d2)
    (<= (sqdist 1.0 54) d2)
    (<= (sqdist 1.0 55) d2)
    (<= (sqdist 1.0 56) d2)
    (<= (sqdist 1.0 57) d2)
    (<= (sqdist 1.0 58) d2)
    (<= (sqdist 1.0 59) d2)
    (<= (sqdist 1.0 60) d2)
    (<= (sqdist 1.0 61) d2)
    (<= (sqdist 1.0 62) d2)
    (<= (sqdist 1.0 63) d2)
    (<= (sqdist 1.0 64) d2)
    (<= (sqdist 1.0 65) d2)
    (<= (sqdist 1.0 66) d2)
    (<= (sqdist 1.0 67) d2)
    (<= (sqdist 1.0 68) d2)
    (<= (sqdist 1.0 69) d2)
    (<= (sqdist 1.0 70) d2)
    (<= (sqdist 1.0 71) d2)
    (<= (sqdist 1.0 72) d2)
    (<= (sqdist 1.0 73) d2)
    (<= (sqdist 1.0 74) d2)
    (<= (sqdist 1.0 75) d2)
    (<= (sqdist 1.0 76) d2)
    (<= (sqdist 1.0 77) d2)
    (<= (sqdist 1.0 78) d2)
    (<= (sqdist 1.0 79) d2)
    (<= (sqdist 1.0 80) d2)
    (<= (sqdist 1.0 81) d2)
    (<= (sqdist 1.0 82) d2)
    (<= (sqdist 1.0 83) d2)
    (<= (sqdist 1.0 84) d2)
    (<= (sqdist 1.0 85) d2)
    (<= (sqdist 1.0 86) d2)
    (<= (sqdist 1.0 87) d2)
    (<= (sqdist 1.0 88) d2)
    (<= (sqdist 1.0 89) d2)
    (<= (sqdist 1.0 90) d2)
    (<= (sqdist 1.0 91) d2)
    (<= (sqdist 1.0 92) d2)
    (<= (sqdist 1.0 93) d2)
    (<= (sqdist 1.0 94) d2)
    (<= (sqdist 1.0 95) d2)
    (<= (sqdist 1.0 96) d2)
    (<= (sqdist 1.0 97) d2)
    (<= (sqdist 1.0 98) d2)
    (<= (sqdist 1.0 99) d2)
  )
)

(assert
  (and
    close_p0
    close_p1
    close_p2
    close_p3
    close_p4
  )
)

(check-sat)
